p cnf 100 345
-3 -2 0
-3 -2 0
2 3 0
-6 -4 0
-6 -5 0
4 5 6 0
3 -6 -7 0
-3 6 -7 0
3 6 7 0
-3 -6 7 0
8 -7 0
8 -3 0
7 3 -8 0
10 8 0
10 9 0
-8 -9 -10 0
-10 -11 -12 0
10 11 -12 0
-10 11 12 0
10 -11 12 0
14 -9 0
14 -13 0
9 13 -14 0
15 12 0
15 8 0
-12 -8 -15 0
-15 8 -16 0
15 -8 -16 0
-15 -8 16 0
15 8 16 0
-17 14 0
-17 16 0
-14 -16 17 0
18 -12 0
18 -17 0
12 17 -18 0
-19 1 0
-19 -18 0
-1 18 19 0
20 11 -21 0
-20 -11 -21 0
20 -11 21 0
-20 11 21 0
-22 8 0
-22 21 0
-8 -21 22 0
15 3 -23 0
-15 -3 -23 0
15 -3 23 0
-15 3 23 0
1 -23 -24 0
-1 23 -24 0
1 23 24 0
-1 -23 24 0
-27 -25 0
-27 -26 0
25 26 27 0
28 -24 0
28 27 0
24 -27 -28 0
29 22 0
29 28 0
-22 -28 -29 0
19 -29 -30 0
-19 29 -30 0
19 29 30 0
-19 -29 30 0
-32 26 0
-32 31 0
-26 -31 32 0
33 -5 0
33 -2 0
5 2 -33 0
34 -31 0
34 -33 0
31 33 -34 0
35 -34 0
35 6 0
34 -6 -35 0
36 35 0
36 12 0
-35 -12 -36 0
32 36 -37 0
-32 -36 -37 0
32 -36 37 0
-32 36 37 0
-38 13 0
-38 13 0
-13 38 0
-39 38 0
-39 -20 0
-38 20 39 0
-21 -39 -40 0
21 39 -40 0
-21 39 40 0
21 -39 40 0
-2 -20 -41 0
2 20 -41 0
-2 20 41 0
2 -20 41 0
41 -5 -42 0
-41 5 -42 0
41 5 42 0
-41 -5 42 0
40 -42 -43 0
-40 42 -43 0
40 42 43 0
-40 -42 43 0
43 -42 -44 0
-43 42 -44 0
43 42 44 0
-43 -42 44 0
45 37 0
45 -44 0
-37 44 -45 0
46 -30 0
46 -45 0
30 45 -46 0
38 13 -47 0
-38 -13 -47 0
38 -13 47 0
-38 13 47 0
-48 -20 0
-48 41 0
20 -41 48 0
47 -48 -49 0
-47 48 -49 0
47 48 49 0
-47 -48 49 0
50 38 0
50 -40 0
-38 40 -50 0
51 -9 0
51 5 0
9 -5 -51 0
-50 51 -52 0
50 -51 -52 0
-50 -51 52 0
50 51 52 0
-53 -49 0
-53 -52 0
49 52 53 0
39 -14 -54 0
-39 14 -54 0
39 14 54 0
-39 -14 54 0
55 21 0
55 3 0
-21 -3 -55 0
-56 -54 0
-56 -55 0
54 55 56 0
-57 -2 0
-57 -31 0
2 31 57 0
-58 41 0
-58 -8 0
-41 8 58 0
-57 -58 -59 0
57 58 -59 0
-57 58 59 0
57 -58 59 0
60 -6 0
60 59 0
6 -59 -60 0
-56 -60 -61 0
56 60 -61 0
-56 60 61 0
56 -60 61 0
62 -53 0
62 61 0
53 -61 -62 0
-63 -7 0
-63 33 0
7 -33 63 0
64 -63 0
64 -13 0
63 13 -64 0
65 8 0
65 -57 0
-8 57 -65 0
9 65 -66 0
-9 -65 -66 0
9 -65 66 0
-9 65 66 0
-32 -10 -67 0
32 10 -67 0
-32 10 67 0
32 -10 67 0
66 -67 -68 0
-66 67 -68 0
66 67 68 0
-66 -67 68 0
64 68 -69 0
-64 -68 -69 0
64 -68 69 0
-64 68 69 0
-70 -62 0
-70 -69 0
62 69 70 0
71 -33 0
71 -23 0
33 23 -71 0
73 72 0
73 5 0
-72 -5 -73 0
-71 -73 -74 0
71 73 -74 0
-71 73 74 0
71 -73 74 0
-75 31 0
-75 32 0
-31 -32 75 0
-74 75 -76 0
74 -75 -76 0
-74 -75 76 0
74 75 76 0
-77 26 0
-77 -50 0
-26 50 77 0
-78 -15 0
-78 67 0
15 -67 78 0
-79 -77 0
-79 -78 0
77 78 79 0
-80 -13 0
-80 -21 0
13 21 80 0
-81 -67 0
-81 -31 0
67 31 81 0
-80 -81 -82 0
80 81 -82 0
-80 81 82 0
80 -81 82 0
-9 -83 0
9 -83 0
-85 -83 0
-85 -84 0
83 84 85 0
72 -16 -86 0
-72 16 -86 0
72 16 86 0
-72 -16 86 0
85 86 -87 0
-85 -86 -87 0
85 -86 87 0
-85 86 87 0
-88 21 0
-88 -12 0
-21 12 88 0
89 35 0
89 -34 0
-35 34 -89 0
-90 -88 0
-90 89 0
88 -89 90 0
92 91 0
92 50 0
-91 -50 -92 0
-93 -10 0
-93 92 0
10 -92 93 0
-94 -90 0
-94 93 0
90 -93 94 0
-95 -87 0
-95 94 0
87 -94 95 0
-82 -95 -96 0
82 95 -96 0
-82 95 96 0
82 -95 96 0
97 79 0
97 96 0
-79 -96 -97 0
76 97 -98 0
-76 -97 -98 0
76 -97 98 0
-76 97 98 0
-99 -70 0
-99 -98 0
70 98 99 0
100 -46 0
100 99 0
46 -99 -100 0
50 -46 4 0
30 -23 -31 0
38 85 -74 0
66 -39 50 -91 0
78 85 -71 -64 0
-98 20 -16 43 -88 49 0
-62 29 -66 0
97 77 -55 -10 0
67 13 64 0
98 66 21 0
52 56 -80 36 74 -68 0
-21 -49 -98 82 84 42 0
75 -53 -97 95 0
31 -94 -9 -68 -63 0
-21 -26 0
-47 -65 -87 82 -5 0
33 -56 -64 23 0
-99 60 20 -10 -61 0
-82 14 -20 -91 0
-99 25 0
-48 -78 -27 0
-66 71 63 5 -49 0
63 66 0
50 -68 0
-50 43 0
2 -36 -83 -14 -40 0
51 -68 -84 42 0
70 60 0
60 -75 -57 0
31 59 0
-39 -37 -17 -30 92 0
53 -83 -78 82 55 0
70 -16 0
-47 -34 -9 -21 50 0
-55 86 0
-65 32 0
92 -57 -52 16 -32 26 0
85 3 42 0
75 42 5 17 0
-42 89 16 75 24 0
-87 -26 -28 0
90 54 0
-1 89 -8 38 -83 0
57 13 9 100 82 51 0
73 -19 0
-65 45 0
-35 -85 -82 -62 -42 0
32 43 78 0
10 -44 -87 0
28 42 60 55 -11 51 0
-7 1 3 0
-41 46 30 53 0
-35 -33 85 81 -71 0
89 -9 86 -79 0
-78 -84 0
91 79 -96 80 -69 0
4 58 -87 0
100 0
